* #variable= 342 #constraint= 164
* Constraints for DisplayerReleaseUpdates
min:  +8000 x61 +450 x107 +1200 x198 +8300 x294 +400 x295 +400 x296 +400 x297 +400 x298 +400 x299 +400 x300 -10 x301 -10 x302 -10 x303 -10 x304 -10 x305 -10 x306 -10 x307 -10 x308 -10 x309 -10 x310 -10 x311 -10 x312 -10 x313 -10 x314 -10 x315 -10 x316 -10 x317 -10 x318 -10 x319 -10 x320 -10 x321 -10 x322 -10 x323 -10 x324 -10 x325 -10 x326 -10 x327 -10 x328 -10 x329 -10 x330 -10 x331 -10 x332 -10 x333 -10 x334 -10 x335 -10 x336 -10 x337 -10 x338 -10 x339 -10 x340 -10 x341 -10 x342;
* Callee-save Registers
 -1 x3 -1 x16 -1 x17 -1 x18 -1 x19 -1 x20 -1 x21 -1 x22 -1 x23 -1 x24 -1 x25 -1 x26 -1 x27 -1 x28 -1 x29 -1 x30 -1 x31 -1 x32 -1 x33 -1 x34 -1 x35 -1 x36 -1 x37 -1 x38 -1 x39 -1 x40 -1 x41 -1 x42 -1 x43 -1 x44 -1 x45 -1 x46 -1 x47 -1 x48 -1 x49 -1 x50 -1 x51 -1 x52 -1 x53 -1 x54 -1 x55 -1 x56 -1 x57 -1 x58 -1 x59 -1 x60 -1 x63 -1 x77 -1 x78 -1 x79 -1 x80 -1 x81 -1 x82 -1 x83 -1 x84 -1 x85 -1 x86 -1 x87 -1 x88 -1 x89 -1 x90 -1 x91 -1 x92 -1 x93 -1 x94 -1 x95 -1 x96 -1 x97 -1 x98 -1 x99 -1 x100 -1 x101 -1 x102 -1 x103 -1 x104 -1 x105 -1 x106 -1 x110 -1 x123 -1 x124 -1 x125 -1 x126 -1 x127 -1 x128 -1 x129 -1 x130 -1 x131 -1 x132 -1 x133 -1 x134 -1 x135 -1 x136 -1 x137 -1 x183 -1 x184 -1 x185 -1 x186 -1 x187 -1 x188 -1 x189 -1 x190 -1 x191 -1 x192 -1 x193 -1 x194 -1 x195 -1 x196 -1 x197 -1 x153 -1 x154 -1 x155 -1 x156 -1 x157 -1 x158 -1 x159 -1 x160 -1 x161 -1 x162 -1 x163 -1 x164 -1 x165 -1 x166 -1 x167 -1 x168 -1 x169 -1 x170 -1 x171 -1 x172 -1 x173 -1 x174 -1 x175 -1 x176 -1 x177 -1 x178 -1 x179 -1 x180 -1 x181 -1 x182 -1 x183 -1 x184 -1 x185 -1 x186 -1 x187 -1 x188 -1 x189 -1 x190 -1 x191 -1 x192 -1 x193 -1 x194 -1 x195 -1 x196 -1 x197 -1 x200 -1 x205 -1 x206 -1 x207 -1 x208 -1 x209 -1 x210 -1 x211 -1 x212 -1 x213 -1 x214 -1 x215 -1 x216 -1 x217 -1 x218 -1 x219 -1 x220 -1 x221 -1 x222 -1 x223 -1 x224 -1 x225 -1 x226 -1 x227 -1 x228 -1 x229 -1 x230 -1 x231 -1 x232 -1 x233 -1 x234 -1 x235 -1 x236 -1 x237 -1 x238 -1 x239 -1 x240 -1 x241 -1 x242 -1 x243 -1 x244 -1 x245 -1 x246 -1 x247 -1 x248 -1 x249 -1 x250 -1 x251 -1 x252 -1 x253 -1 x254 -1 x255 -1 x256 -1 x257 -1 x258 -1 x259 -1 x260 -1 x261 -1 x262 -1 x263 -1 x264 -1 x265 -1 x266 -1 x267 -1 x268 -1 x269 -1 x270 -1 x271 -1 x272 -1 x273 -1 x274 -1 x275 -1 x276 -1 x277 -1 x278 -1 x279 -1 x280 -1 x281 -1 x282 -1 x283 -1 x284 -1 x285 -1 x286 -1 x287 -1 x288 -1 x289 -1 x290 -1 x291 -1 x292 -1 x293 +243 x295 >= 0;
 -1 ~x3 -1 ~x16 -1 ~x17 -1 ~x18 -1 ~x19 -1 ~x20 -1 ~x21 -1 ~x22 -1 ~x23 -1 ~x24 -1 ~x25 -1 ~x26 -1 ~x27 -1 ~x28 -1 ~x29 -1 ~x30 -1 ~x31 -1 ~x32 -1 ~x33 -1 ~x34 -1 ~x35 -1 ~x36 -1 ~x37 -1 ~x38 -1 ~x39 -1 ~x40 -1 ~x41 -1 ~x42 -1 ~x43 -1 ~x44 -1 ~x45 -1 ~x46 -1 ~x47 -1 ~x48 -1 ~x49 -1 ~x50 -1 ~x51 -1 ~x52 -1 ~x53 -1 ~x54 -1 ~x55 -1 ~x56 -1 ~x57 -1 ~x58 -1 ~x59 -1 ~x60 -1 ~x63 -1 ~x77 -1 ~x78 -1 ~x79 -1 ~x80 -1 ~x81 -1 ~x82 -1 ~x83 -1 ~x84 -1 ~x85 -1 ~x86 -1 ~x87 -1 ~x88 -1 ~x89 -1 ~x90 -1 ~x91 -1 ~x92 -1 ~x93 -1 ~x94 -1 ~x95 -1 ~x96 -1 ~x97 -1 ~x98 -1 ~x99 -1 ~x100 -1 ~x101 -1 ~x102 -1 ~x103 -1 ~x104 -1 ~x105 -1 ~x106 -1 ~x110 -1 ~x123 -1 ~x124 -1 ~x125 -1 ~x126 -1 ~x127 -1 ~x128 -1 ~x129 -1 ~x130 -1 ~x131 -1 ~x132 -1 ~x133 -1 ~x134 -1 ~x135 -1 ~x136 -1 ~x137 -1 ~x183 -1 ~x184 -1 ~x185 -1 ~x186 -1 ~x187 -1 ~x188 -1 ~x189 -1 ~x190 -1 ~x191 -1 ~x192 -1 ~x193 -1 ~x194 -1 ~x195 -1 ~x196 -1 ~x197 -1 ~x153 -1 ~x154 -1 ~x155 -1 ~x156 -1 ~x157 -1 ~x158 -1 ~x159 -1 ~x160 -1 ~x161 -1 ~x162 -1 ~x163 -1 ~x164 -1 ~x165 -1 ~x166 -1 ~x167 -1 ~x168 -1 ~x169 -1 ~x170 -1 ~x171 -1 ~x172 -1 ~x173 -1 ~x174 -1 ~x175 -1 ~x176 -1 ~x177 -1 ~x178 -1 ~x179 -1 ~x180 -1 ~x181 -1 ~x182 -1 ~x183 -1 ~x184 -1 ~x185 -1 ~x186 -1 ~x187 -1 ~x188 -1 ~x189 -1 ~x190 -1 ~x191 -1 ~x192 -1 ~x193 -1 ~x194 -1 ~x195 -1 ~x196 -1 ~x197 -1 ~x200 -1 ~x205 -1 ~x206 -1 ~x207 -1 ~x208 -1 ~x209 -1 ~x210 -1 ~x211 -1 ~x212 -1 ~x213 -1 ~x214 -1 ~x215 -1 ~x216 -1 ~x217 -1 ~x218 -1 ~x219 -1 ~x220 -1 ~x221 -1 ~x222 -1 ~x223 -1 ~x224 -1 ~x225 -1 ~x226 -1 ~x227 -1 ~x228 -1 ~x229 -1 ~x230 -1 ~x231 -1 ~x232 -1 ~x233 -1 ~x234 -1 ~x235 -1 ~x236 -1 ~x237 -1 ~x238 -1 ~x239 -1 ~x240 -1 ~x241 -1 ~x242 -1 ~x243 -1 ~x244 -1 ~x245 -1 ~x246 -1 ~x247 -1 ~x248 -1 ~x249 -1 ~x250 -1 ~x251 -1 ~x252 -1 ~x253 -1 ~x254 -1 ~x255 -1 ~x256 -1 ~x257 -1 ~x258 -1 ~x259 -1 ~x260 -1 ~x261 -1 ~x262 -1 ~x263 -1 ~x264 -1 ~x265 -1 ~x266 -1 ~x267 -1 ~x268 -1 ~x269 -1 ~x270 -1 ~x271 -1 ~x272 -1 ~x273 -1 ~x274 -1 ~x275 -1 ~x276 -1 ~x277 -1 ~x278 -1 ~x279 -1 ~x280 -1 ~x281 -1 ~x282 -1 ~x283 -1 ~x284 -1 ~x285 -1 ~x286 -1 ~x287 -1 ~x288 -1 ~x289 -1 ~x290 -1 ~x291 -1 ~x292 -1 ~x293 +243 ~x295 >= -242;
 -1 x12 -1 x16 -1 x17 -1 x18 -1 x19 -1 x20 -1 x21 -1 x22 -1 x23 -1 x24 -1 x25 -1 x26 -1 x27 -1 x28 -1 x29 -1 x30 -1 x31 -1 x32 -1 x33 -1 x34 -1 x35 -1 x36 -1 x37 -1 x38 -1 x39 -1 x40 -1 x41 -1 x42 -1 x43 -1 x44 -1 x45 -1 x46 -1 x47 -1 x48 -1 x49 -1 x50 -1 x51 -1 x52 -1 x53 -1 x54 -1 x55 -1 x56 -1 x57 -1 x58 -1 x59 -1 x60 -1 x73 -1 x77 -1 x78 -1 x79 -1 x80 -1 x81 -1 x82 -1 x83 -1 x84 -1 x85 -1 x86 -1 x87 -1 x88 -1 x89 -1 x90 -1 x91 -1 x92 -1 x93 -1 x94 -1 x95 -1 x96 -1 x97 -1 x98 -1 x99 -1 x100 -1 x101 -1 x102 -1 x103 -1 x104 -1 x105 -1 x106 -1 x119 -1 x123 -1 x124 -1 x125 -1 x126 -1 x127 -1 x128 -1 x129 -1 x130 -1 x131 -1 x132 -1 x133 -1 x134 -1 x135 -1 x136 -1 x137 -1 x183 -1 x184 -1 x185 -1 x186 -1 x187 -1 x188 -1 x189 -1 x190 -1 x191 -1 x192 -1 x193 -1 x194 -1 x195 -1 x196 -1 x197 -1 x153 -1 x154 -1 x155 -1 x156 -1 x157 -1 x158 -1 x159 -1 x160 -1 x161 -1 x162 -1 x163 -1 x164 -1 x165 -1 x166 -1 x167 -1 x168 -1 x169 -1 x170 -1 x171 -1 x172 -1 x173 -1 x174 -1 x175 -1 x176 -1 x177 -1 x178 -1 x179 -1 x180 -1 x181 -1 x182 -1 x183 -1 x184 -1 x185 -1 x186 -1 x187 -1 x188 -1 x189 -1 x190 -1 x191 -1 x192 -1 x193 -1 x194 -1 x195 -1 x196 -1 x197 -1 x201 -1 x205 -1 x206 -1 x207 -1 x208 -1 x209 -1 x210 -1 x211 -1 x212 -1 x213 -1 x214 -1 x215 -1 x216 -1 x217 -1 x218 -1 x219 -1 x220 -1 x221 -1 x222 -1 x223 -1 x224 -1 x225 -1 x226 -1 x227 -1 x228 -1 x229 -1 x230 -1 x231 -1 x232 -1 x233 -1 x234 -1 x235 -1 x236 -1 x237 -1 x238 -1 x239 -1 x240 -1 x241 -1 x242 -1 x243 -1 x244 -1 x245 -1 x246 -1 x247 -1 x248 -1 x249 -1 x250 -1 x251 -1 x252 -1 x253 -1 x254 -1 x255 -1 x256 -1 x257 -1 x258 -1 x259 -1 x260 -1 x261 -1 x262 -1 x263 -1 x264 -1 x265 -1 x266 -1 x267 -1 x268 -1 x269 -1 x270 -1 x271 -1 x272 -1 x273 -1 x274 -1 x275 -1 x276 -1 x277 -1 x278 -1 x279 -1 x280 -1 x281 -1 x282 -1 x283 -1 x284 -1 x285 -1 x286 -1 x287 -1 x288 -1 x289 -1 x290 -1 x291 -1 x292 -1 x293 +243 x296 >= 0;
 -1 ~x12 -1 ~x16 -1 ~x17 -1 ~x18 -1 ~x19 -1 ~x20 -1 ~x21 -1 ~x22 -1 ~x23 -1 ~x24 -1 ~x25 -1 ~x26 -1 ~x27 -1 ~x28 -1 ~x29 -1 ~x30 -1 ~x31 -1 ~x32 -1 ~x33 -1 ~x34 -1 ~x35 -1 ~x36 -1 ~x37 -1 ~x38 -1 ~x39 -1 ~x40 -1 ~x41 -1 ~x42 -1 ~x43 -1 ~x44 -1 ~x45 -1 ~x46 -1 ~x47 -1 ~x48 -1 ~x49 -1 ~x50 -1 ~x51 -1 ~x52 -1 ~x53 -1 ~x54 -1 ~x55 -1 ~x56 -1 ~x57 -1 ~x58 -1 ~x59 -1 ~x60 -1 ~x73 -1 ~x77 -1 ~x78 -1 ~x79 -1 ~x80 -1 ~x81 -1 ~x82 -1 ~x83 -1 ~x84 -1 ~x85 -1 ~x86 -1 ~x87 -1 ~x88 -1 ~x89 -1 ~x90 -1 ~x91 -1 ~x92 -1 ~x93 -1 ~x94 -1 ~x95 -1 ~x96 -1 ~x97 -1 ~x98 -1 ~x99 -1 ~x100 -1 ~x101 -1 ~x102 -1 ~x103 -1 ~x104 -1 ~x105 -1 ~x106 -1 ~x119 -1 ~x123 -1 ~x124 -1 ~x125 -1 ~x126 -1 ~x127 -1 ~x128 -1 ~x129 -1 ~x130 -1 ~x131 -1 ~x132 -1 ~x133 -1 ~x134 -1 ~x135 -1 ~x136 -1 ~x137 -1 ~x183 -1 ~x184 -1 ~x185 -1 ~x186 -1 ~x187 -1 ~x188 -1 ~x189 -1 ~x190 -1 ~x191 -1 ~x192 -1 ~x193 -1 ~x194 -1 ~x195 -1 ~x196 -1 ~x197 -1 ~x153 -1 ~x154 -1 ~x155 -1 ~x156 -1 ~x157 -1 ~x158 -1 ~x159 -1 ~x160 -1 ~x161 -1 ~x162 -1 ~x163 -1 ~x164 -1 ~x165 -1 ~x166 -1 ~x167 -1 ~x168 -1 ~x169 -1 ~x170 -1 ~x171 -1 ~x172 -1 ~x173 -1 ~x174 -1 ~x175 -1 ~x176 -1 ~x177 -1 ~x178 -1 ~x179 -1 ~x180 -1 ~x181 -1 ~x182 -1 ~x183 -1 ~x184 -1 ~x185 -1 ~x186 -1 ~x187 -1 ~x188 -1 ~x189 -1 ~x190 -1 ~x191 -1 ~x192 -1 ~x193 -1 ~x194 -1 ~x195 -1 ~x196 -1 ~x197 -1 ~x201 -1 ~x205 -1 ~x206 -1 ~x207 -1 ~x208 -1 ~x209 -1 ~x210 -1 ~x211 -1 ~x212 -1 ~x213 -1 ~x214 -1 ~x215 -1 ~x216 -1 ~x217 -1 ~x218 -1 ~x219 -1 ~x220 -1 ~x221 -1 ~x222 -1 ~x223 -1 ~x224 -1 ~x225 -1 ~x226 -1 ~x227 -1 ~x228 -1 ~x229 -1 ~x230 -1 ~x231 -1 ~x232 -1 ~x233 -1 ~x234 -1 ~x235 -1 ~x236 -1 ~x237 -1 ~x238 -1 ~x239 -1 ~x240 -1 ~x241 -1 ~x242 -1 ~x243 -1 ~x244 -1 ~x245 -1 ~x246 -1 ~x247 -1 ~x248 -1 ~x249 -1 ~x250 -1 ~x251 -1 ~x252 -1 ~x253 -1 ~x254 -1 ~x255 -1 ~x256 -1 ~x257 -1 ~x258 -1 ~x259 -1 ~x260 -1 ~x261 -1 ~x262 -1 ~x263 -1 ~x264 -1 ~x265 -1 ~x266 -1 ~x267 -1 ~x268 -1 ~x269 -1 ~x270 -1 ~x271 -1 ~x272 -1 ~x273 -1 ~x274 -1 ~x275 -1 ~x276 -1 ~x277 -1 ~x278 -1 ~x279 -1 ~x280 -1 ~x281 -1 ~x282 -1 ~x283 -1 ~x284 -1 ~x285 -1 ~x286 -1 ~x287 -1 ~x288 -1 ~x289 -1 ~x290 -1 ~x291 -1 ~x292 -1 ~x293 +243 ~x296 >= -242;
 -1 x13 -1 x16 -1 x17 -1 x18 -1 x19 -1 x20 -1 x21 -1 x22 -1 x23 -1 x24 -1 x25 -1 x26 -1 x27 -1 x28 -1 x29 -1 x30 -1 x31 -1 x32 -1 x33 -1 x34 -1 x35 -1 x36 -1 x37 -1 x38 -1 x39 -1 x40 -1 x41 -1 x42 -1 x43 -1 x44 -1 x45 -1 x46 -1 x47 -1 x48 -1 x49 -1 x50 -1 x51 -1 x52 -1 x53 -1 x54 -1 x55 -1 x56 -1 x57 -1 x58 -1 x59 -1 x60 -1 x74 -1 x77 -1 x78 -1 x79 -1 x80 -1 x81 -1 x82 -1 x83 -1 x84 -1 x85 -1 x86 -1 x87 -1 x88 -1 x89 -1 x90 -1 x91 -1 x92 -1 x93 -1 x94 -1 x95 -1 x96 -1 x97 -1 x98 -1 x99 -1 x100 -1 x101 -1 x102 -1 x103 -1 x104 -1 x105 -1 x106 -1 x120 -1 x123 -1 x124 -1 x125 -1 x126 -1 x127 -1 x128 -1 x129 -1 x130 -1 x131 -1 x132 -1 x133 -1 x134 -1 x135 -1 x136 -1 x137 -1 x183 -1 x184 -1 x185 -1 x186 -1 x187 -1 x188 -1 x189 -1 x190 -1 x191 -1 x192 -1 x193 -1 x194 -1 x195 -1 x196 -1 x197 -1 x153 -1 x154 -1 x155 -1 x156 -1 x157 -1 x158 -1 x159 -1 x160 -1 x161 -1 x162 -1 x163 -1 x164 -1 x165 -1 x166 -1 x167 -1 x168 -1 x169 -1 x170 -1 x171 -1 x172 -1 x173 -1 x174 -1 x175 -1 x176 -1 x177 -1 x178 -1 x179 -1 x180 -1 x181 -1 x182 -1 x183 -1 x184 -1 x185 -1 x186 -1 x187 -1 x188 -1 x189 -1 x190 -1 x191 -1 x192 -1 x193 -1 x194 -1 x195 -1 x196 -1 x197 -1 x202 -1 x205 -1 x206 -1 x207 -1 x208 -1 x209 -1 x210 -1 x211 -1 x212 -1 x213 -1 x214 -1 x215 -1 x216 -1 x217 -1 x218 -1 x219 -1 x220 -1 x221 -1 x222 -1 x223 -1 x224 -1 x225 -1 x226 -1 x227 -1 x228 -1 x229 -1 x230 -1 x231 -1 x232 -1 x233 -1 x234 -1 x235 -1 x236 -1 x237 -1 x238 -1 x239 -1 x240 -1 x241 -1 x242 -1 x243 -1 x244 -1 x245 -1 x246 -1 x247 -1 x248 -1 x249 -1 x250 -1 x251 -1 x252 -1 x253 -1 x254 -1 x255 -1 x256 -1 x257 -1 x258 -1 x259 -1 x260 -1 x261 -1 x262 -1 x263 -1 x264 -1 x265 -1 x266 -1 x267 -1 x268 -1 x269 -1 x270 -1 x271 -1 x272 -1 x273 -1 x274 -1 x275 -1 x276 -1 x277 -1 x278 -1 x279 -1 x280 -1 x281 -1 x282 -1 x283 -1 x284 -1 x285 -1 x286 -1 x287 -1 x288 -1 x289 -1 x290 -1 x291 -1 x292 -1 x293 +243 x297 >= 0;
 -1 ~x13 -1 ~x16 -1 ~x17 -1 ~x18 -1 ~x19 -1 ~x20 -1 ~x21 -1 ~x22 -1 ~x23 -1 ~x24 -1 ~x25 -1 ~x26 -1 ~x27 -1 ~x28 -1 ~x29 -1 ~x30 -1 ~x31 -1 ~x32 -1 ~x33 -1 ~x34 -1 ~x35 -1 ~x36 -1 ~x37 -1 ~x38 -1 ~x39 -1 ~x40 -1 ~x41 -1 ~x42 -1 ~x43 -1 ~x44 -1 ~x45 -1 ~x46 -1 ~x47 -1 ~x48 -1 ~x49 -1 ~x50 -1 ~x51 -1 ~x52 -1 ~x53 -1 ~x54 -1 ~x55 -1 ~x56 -1 ~x57 -1 ~x58 -1 ~x59 -1 ~x60 -1 ~x74 -1 ~x77 -1 ~x78 -1 ~x79 -1 ~x80 -1 ~x81 -1 ~x82 -1 ~x83 -1 ~x84 -1 ~x85 -1 ~x86 -1 ~x87 -1 ~x88 -1 ~x89 -1 ~x90 -1 ~x91 -1 ~x92 -1 ~x93 -1 ~x94 -1 ~x95 -1 ~x96 -1 ~x97 -1 ~x98 -1 ~x99 -1 ~x100 -1 ~x101 -1 ~x102 -1 ~x103 -1 ~x104 -1 ~x105 -1 ~x106 -1 ~x120 -1 ~x123 -1 ~x124 -1 ~x125 -1 ~x126 -1 ~x127 -1 ~x128 -1 ~x129 -1 ~x130 -1 ~x131 -1 ~x132 -1 ~x133 -1 ~x134 -1 ~x135 -1 ~x136 -1 ~x137 -1 ~x183 -1 ~x184 -1 ~x185 -1 ~x186 -1 ~x187 -1 ~x188 -1 ~x189 -1 ~x190 -1 ~x191 -1 ~x192 -1 ~x193 -1 ~x194 -1 ~x195 -1 ~x196 -1 ~x197 -1 ~x153 -1 ~x154 -1 ~x155 -1 ~x156 -1 ~x157 -1 ~x158 -1 ~x159 -1 ~x160 -1 ~x161 -1 ~x162 -1 ~x163 -1 ~x164 -1 ~x165 -1 ~x166 -1 ~x167 -1 ~x168 -1 ~x169 -1 ~x170 -1 ~x171 -1 ~x172 -1 ~x173 -1 ~x174 -1 ~x175 -1 ~x176 -1 ~x177 -1 ~x178 -1 ~x179 -1 ~x180 -1 ~x181 -1 ~x182 -1 ~x183 -1 ~x184 -1 ~x185 -1 ~x186 -1 ~x187 -1 ~x188 -1 ~x189 -1 ~x190 -1 ~x191 -1 ~x192 -1 ~x193 -1 ~x194 -1 ~x195 -1 ~x196 -1 ~x197 -1 ~x202 -1 ~x205 -1 ~x206 -1 ~x207 -1 ~x208 -1 ~x209 -1 ~x210 -1 ~x211 -1 ~x212 -1 ~x213 -1 ~x214 -1 ~x215 -1 ~x216 -1 ~x217 -1 ~x218 -1 ~x219 -1 ~x220 -1 ~x221 -1 ~x222 -1 ~x223 -1 ~x224 -1 ~x225 -1 ~x226 -1 ~x227 -1 ~x228 -1 ~x229 -1 ~x230 -1 ~x231 -1 ~x232 -1 ~x233 -1 ~x234 -1 ~x235 -1 ~x236 -1 ~x237 -1 ~x238 -1 ~x239 -1 ~x240 -1 ~x241 -1 ~x242 -1 ~x243 -1 ~x244 -1 ~x245 -1 ~x246 -1 ~x247 -1 ~x248 -1 ~x249 -1 ~x250 -1 ~x251 -1 ~x252 -1 ~x253 -1 ~x254 -1 ~x255 -1 ~x256 -1 ~x257 -1 ~x258 -1 ~x259 -1 ~x260 -1 ~x261 -1 ~x262 -1 ~x263 -1 ~x264 -1 ~x265 -1 ~x266 -1 ~x267 -1 ~x268 -1 ~x269 -1 ~x270 -1 ~x271 -1 ~x272 -1 ~x273 -1 ~x274 -1 ~x275 -1 ~x276 -1 ~x277 -1 ~x278 -1 ~x279 -1 ~x280 -1 ~x281 -1 ~x282 -1 ~x283 -1 ~x284 -1 ~x285 -1 ~x286 -1 ~x287 -1 ~x288 -1 ~x289 -1 ~x290 -1 ~x291 -1 ~x292 -1 ~x293 +243 ~x297 >= -242;
 -1 x14 -1 x16 -1 x17 -1 x18 -1 x19 -1 x20 -1 x21 -1 x22 -1 x23 -1 x24 -1 x25 -1 x26 -1 x27 -1 x28 -1 x29 -1 x30 -1 x31 -1 x32 -1 x33 -1 x34 -1 x35 -1 x36 -1 x37 -1 x38 -1 x39 -1 x40 -1 x41 -1 x42 -1 x43 -1 x44 -1 x45 -1 x46 -1 x47 -1 x48 -1 x49 -1 x50 -1 x51 -1 x52 -1 x53 -1 x54 -1 x55 -1 x56 -1 x57 -1 x58 -1 x59 -1 x60 -1 x75 -1 x77 -1 x78 -1 x79 -1 x80 -1 x81 -1 x82 -1 x83 -1 x84 -1 x85 -1 x86 -1 x87 -1 x88 -1 x89 -1 x90 -1 x91 -1 x92 -1 x93 -1 x94 -1 x95 -1 x96 -1 x97 -1 x98 -1 x99 -1 x100 -1 x101 -1 x102 -1 x103 -1 x104 -1 x105 -1 x106 -1 x121 -1 x123 -1 x124 -1 x125 -1 x126 -1 x127 -1 x128 -1 x129 -1 x130 -1 x131 -1 x132 -1 x133 -1 x134 -1 x135 -1 x136 -1 x137 -1 x183 -1 x184 -1 x185 -1 x186 -1 x187 -1 x188 -1 x189 -1 x190 -1 x191 -1 x192 -1 x193 -1 x194 -1 x195 -1 x196 -1 x197 -1 x153 -1 x154 -1 x155 -1 x156 -1 x157 -1 x158 -1 x159 -1 x160 -1 x161 -1 x162 -1 x163 -1 x164 -1 x165 -1 x166 -1 x167 -1 x168 -1 x169 -1 x170 -1 x171 -1 x172 -1 x173 -1 x174 -1 x175 -1 x176 -1 x177 -1 x178 -1 x179 -1 x180 -1 x181 -1 x182 -1 x183 -1 x184 -1 x185 -1 x186 -1 x187 -1 x188 -1 x189 -1 x190 -1 x191 -1 x192 -1 x193 -1 x194 -1 x195 -1 x196 -1 x197 -1 x203 -1 x205 -1 x206 -1 x207 -1 x208 -1 x209 -1 x210 -1 x211 -1 x212 -1 x213 -1 x214 -1 x215 -1 x216 -1 x217 -1 x218 -1 x219 -1 x220 -1 x221 -1 x222 -1 x223 -1 x224 -1 x225 -1 x226 -1 x227 -1 x228 -1 x229 -1 x230 -1 x231 -1 x232 -1 x233 -1 x234 -1 x235 -1 x236 -1 x237 -1 x238 -1 x239 -1 x240 -1 x241 -1 x242 -1 x243 -1 x244 -1 x245 -1 x246 -1 x247 -1 x248 -1 x249 -1 x250 -1 x251 -1 x252 -1 x253 -1 x254 -1 x255 -1 x256 -1 x257 -1 x258 -1 x259 -1 x260 -1 x261 -1 x262 -1 x263 -1 x264 -1 x265 -1 x266 -1 x267 -1 x268 -1 x269 -1 x270 -1 x271 -1 x272 -1 x273 -1 x274 -1 x275 -1 x276 -1 x277 -1 x278 -1 x279 -1 x280 -1 x281 -1 x282 -1 x283 -1 x284 -1 x285 -1 x286 -1 x287 -1 x288 -1 x289 -1 x290 -1 x291 -1 x292 -1 x293 +243 x298 >= 0;
 -1 ~x14 -1 ~x16 -1 ~x17 -1 ~x18 -1 ~x19 -1 ~x20 -1 ~x21 -1 ~x22 -1 ~x23 -1 ~x24 -1 ~x25 -1 ~x26 -1 ~x27 -1 ~x28 -1 ~x29 -1 ~x30 -1 ~x31 -1 ~x32 -1 ~x33 -1 ~x34 -1 ~x35 -1 ~x36 -1 ~x37 -1 ~x38 -1 ~x39 -1 ~x40 -1 ~x41 -1 ~x42 -1 ~x43 -1 ~x44 -1 ~x45 -1 ~x46 -1 ~x47 -1 ~x48 -1 ~x49 -1 ~x50 -1 ~x51 -1 ~x52 -1 ~x53 -1 ~x54 -1 ~x55 -1 ~x56 -1 ~x57 -1 ~x58 -1 ~x59 -1 ~x60 -1 ~x75 -1 ~x77 -1 ~x78 -1 ~x79 -1 ~x80 -1 ~x81 -1 ~x82 -1 ~x83 -1 ~x84 -1 ~x85 -1 ~x86 -1 ~x87 -1 ~x88 -1 ~x89 -1 ~x90 -1 ~x91 -1 ~x92 -1 ~x93 -1 ~x94 -1 ~x95 -1 ~x96 -1 ~x97 -1 ~x98 -1 ~x99 -1 ~x100 -1 ~x101 -1 ~x102 -1 ~x103 -1 ~x104 -1 ~x105 -1 ~x106 -1 ~x121 -1 ~x123 -1 ~x124 -1 ~x125 -1 ~x126 -1 ~x127 -1 ~x128 -1 ~x129 -1 ~x130 -1 ~x131 -1 ~x132 -1 ~x133 -1 ~x134 -1 ~x135 -1 ~x136 -1 ~x137 -1 ~x183 -1 ~x184 -1 ~x185 -1 ~x186 -1 ~x187 -1 ~x188 -1 ~x189 -1 ~x190 -1 ~x191 -1 ~x192 -1 ~x193 -1 ~x194 -1 ~x195 -1 ~x196 -1 ~x197 -1 ~x153 -1 ~x154 -1 ~x155 -1 ~x156 -1 ~x157 -1 ~x158 -1 ~x159 -1 ~x160 -1 ~x161 -1 ~x162 -1 ~x163 -1 ~x164 -1 ~x165 -1 ~x166 -1 ~x167 -1 ~x168 -1 ~x169 -1 ~x170 -1 ~x171 -1 ~x172 -1 ~x173 -1 ~x174 -1 ~x175 -1 ~x176 -1 ~x177 -1 ~x178 -1 ~x179 -1 ~x180 -1 ~x181 -1 ~x182 -1 ~x183 -1 ~x184 -1 ~x185 -1 ~x186 -1 ~x187 -1 ~x188 -1 ~x189 -1 ~x190 -1 ~x191 -1 ~x192 -1 ~x193 -1 ~x194 -1 ~x195 -1 ~x196 -1 ~x197 -1 ~x203 -1 ~x205 -1 ~x206 -1 ~x207 -1 ~x208 -1 ~x209 -1 ~x210 -1 ~x211 -1 ~x212 -1 ~x213 -1 ~x214 -1 ~x215 -1 ~x216 -1 ~x217 -1 ~x218 -1 ~x219 -1 ~x220 -1 ~x221 -1 ~x222 -1 ~x223 -1 ~x224 -1 ~x225 -1 ~x226 -1 ~x227 -1 ~x228 -1 ~x229 -1 ~x230 -1 ~x231 -1 ~x232 -1 ~x233 -1 ~x234 -1 ~x235 -1 ~x236 -1 ~x237 -1 ~x238 -1 ~x239 -1 ~x240 -1 ~x241 -1 ~x242 -1 ~x243 -1 ~x244 -1 ~x245 -1 ~x246 -1 ~x247 -1 ~x248 -1 ~x249 -1 ~x250 -1 ~x251 -1 ~x252 -1 ~x253 -1 ~x254 -1 ~x255 -1 ~x256 -1 ~x257 -1 ~x258 -1 ~x259 -1 ~x260 -1 ~x261 -1 ~x262 -1 ~x263 -1 ~x264 -1 ~x265 -1 ~x266 -1 ~x267 -1 ~x268 -1 ~x269 -1 ~x270 -1 ~x271 -1 ~x272 -1 ~x273 -1 ~x274 -1 ~x275 -1 ~x276 -1 ~x277 -1 ~x278 -1 ~x279 -1 ~x280 -1 ~x281 -1 ~x282 -1 ~x283 -1 ~x284 -1 ~x285 -1 ~x286 -1 ~x287 -1 ~x288 -1 ~x289 -1 ~x290 -1 ~x291 -1 ~x292 -1 ~x293 +243 ~x298 >= -242;
 -1 x15 -1 x16 -1 x17 -1 x18 -1 x19 -1 x20 -1 x21 -1 x22 -1 x23 -1 x24 -1 x25 -1 x26 -1 x27 -1 x28 -1 x29 -1 x30 -1 x31 -1 x32 -1 x33 -1 x34 -1 x35 -1 x36 -1 x37 -1 x38 -1 x39 -1 x40 -1 x41 -1 x42 -1 x43 -1 x44 -1 x45 -1 x46 -1 x47 -1 x48 -1 x49 -1 x50 -1 x51 -1 x52 -1 x53 -1 x54 -1 x55 -1 x56 -1 x57 -1 x58 -1 x59 -1 x60 -1 x76 -1 x77 -1 x78 -1 x79 -1 x80 -1 x81 -1 x82 -1 x83 -1 x84 -1 x85 -1 x86 -1 x87 -1 x88 -1 x89 -1 x90 -1 x91 -1 x92 -1 x93 -1 x94 -1 x95 -1 x96 -1 x97 -1 x98 -1 x99 -1 x100 -1 x101 -1 x102 -1 x103 -1 x104 -1 x105 -1 x106 -1 x122 -1 x123 -1 x124 -1 x125 -1 x126 -1 x127 -1 x128 -1 x129 -1 x130 -1 x131 -1 x132 -1 x133 -1 x134 -1 x135 -1 x136 -1 x137 -1 x183 -1 x184 -1 x185 -1 x186 -1 x187 -1 x188 -1 x189 -1 x190 -1 x191 -1 x192 -1 x193 -1 x194 -1 x195 -1 x196 -1 x197 -1 x153 -1 x154 -1 x155 -1 x156 -1 x157 -1 x158 -1 x159 -1 x160 -1 x161 -1 x162 -1 x163 -1 x164 -1 x165 -1 x166 -1 x167 -1 x168 -1 x169 -1 x170 -1 x171 -1 x172 -1 x173 -1 x174 -1 x175 -1 x176 -1 x177 -1 x178 -1 x179 -1 x180 -1 x181 -1 x182 -1 x183 -1 x184 -1 x185 -1 x186 -1 x187 -1 x188 -1 x189 -1 x190 -1 x191 -1 x192 -1 x193 -1 x194 -1 x195 -1 x196 -1 x197 -1 x204 -1 x205 -1 x206 -1 x207 -1 x208 -1 x209 -1 x210 -1 x211 -1 x212 -1 x213 -1 x214 -1 x215 -1 x216 -1 x217 -1 x218 -1 x219 -1 x220 -1 x221 -1 x222 -1 x223 -1 x224 -1 x225 -1 x226 -1 x227 -1 x228 -1 x229 -1 x230 -1 x231 -1 x232 -1 x233 -1 x234 -1 x235 -1 x236 -1 x237 -1 x238 -1 x239 -1 x240 -1 x241 -1 x242 -1 x243 -1 x244 -1 x245 -1 x246 -1 x247 -1 x248 -1 x249 -1 x250 -1 x251 -1 x252 -1 x253 -1 x254 -1 x255 -1 x256 -1 x257 -1 x258 -1 x259 -1 x260 -1 x261 -1 x262 -1 x263 -1 x264 -1 x265 -1 x266 -1 x267 -1 x268 -1 x269 -1 x270 -1 x271 -1 x272 -1 x273 -1 x274 -1 x275 -1 x276 -1 x277 -1 x278 -1 x279 -1 x280 -1 x281 -1 x282 -1 x283 -1 x284 -1 x285 -1 x286 -1 x287 -1 x288 -1 x289 -1 x290 -1 x291 -1 x292 -1 x293 +243 x299 >= 0;
 -1 ~x15 -1 ~x16 -1 ~x17 -1 ~x18 -1 ~x19 -1 ~x20 -1 ~x21 -1 ~x22 -1 ~x23 -1 ~x24 -1 ~x25 -1 ~x26 -1 ~x27 -1 ~x28 -1 ~x29 -1 ~x30 -1 ~x31 -1 ~x32 -1 ~x33 -1 ~x34 -1 ~x35 -1 ~x36 -1 ~x37 -1 ~x38 -1 ~x39 -1 ~x40 -1 ~x41 -1 ~x42 -1 ~x43 -1 ~x44 -1 ~x45 -1 ~x46 -1 ~x47 -1 ~x48 -1 ~x49 -1 ~x50 -1 ~x51 -1 ~x52 -1 ~x53 -1 ~x54 -1 ~x55 -1 ~x56 -1 ~x57 -1 ~x58 -1 ~x59 -1 ~x60 -1 ~x76 -1 ~x77 -1 ~x78 -1 ~x79 -1 ~x80 -1 ~x81 -1 ~x82 -1 ~x83 -1 ~x84 -1 ~x85 -1 ~x86 -1 ~x87 -1 ~x88 -1 ~x89 -1 ~x90 -1 ~x91 -1 ~x92 -1 ~x93 -1 ~x94 -1 ~x95 -1 ~x96 -1 ~x97 -1 ~x98 -1 ~x99 -1 ~x100 -1 ~x101 -1 ~x102 -1 ~x103 -1 ~x104 -1 ~x105 -1 ~x106 -1 ~x122 -1 ~x123 -1 ~x124 -1 ~x125 -1 ~x126 -1 ~x127 -1 ~x128 -1 ~x129 -1 ~x130 -1 ~x131 -1 ~x132 -1 ~x133 -1 ~x134 -1 ~x135 -1 ~x136 -1 ~x137 -1 ~x183 -1 ~x184 -1 ~x185 -1 ~x186 -1 ~x187 -1 ~x188 -1 ~x189 -1 ~x190 -1 ~x191 -1 ~x192 -1 ~x193 -1 ~x194 -1 ~x195 -1 ~x196 -1 ~x197 -1 ~x153 -1 ~x154 -1 ~x155 -1 ~x156 -1 ~x157 -1 ~x158 -1 ~x159 -1 ~x160 -1 ~x161 -1 ~x162 -1 ~x163 -1 ~x164 -1 ~x165 -1 ~x166 -1 ~x167 -1 ~x168 -1 ~x169 -1 ~x170 -1 ~x171 -1 ~x172 -1 ~x173 -1 ~x174 -1 ~x175 -1 ~x176 -1 ~x177 -1 ~x178 -1 ~x179 -1 ~x180 -1 ~x181 -1 ~x182 -1 ~x183 -1 ~x184 -1 ~x185 -1 ~x186 -1 ~x187 -1 ~x188 -1 ~x189 -1 ~x190 -1 ~x191 -1 ~x192 -1 ~x193 -1 ~x194 -1 ~x195 -1 ~x196 -1 ~x197 -1 ~x204 -1 ~x205 -1 ~x206 -1 ~x207 -1 ~x208 -1 ~x209 -1 ~x210 -1 ~x211 -1 ~x212 -1 ~x213 -1 ~x214 -1 ~x215 -1 ~x216 -1 ~x217 -1 ~x218 -1 ~x219 -1 ~x220 -1 ~x221 -1 ~x222 -1 ~x223 -1 ~x224 -1 ~x225 -1 ~x226 -1 ~x227 -1 ~x228 -1 ~x229 -1 ~x230 -1 ~x231 -1 ~x232 -1 ~x233 -1 ~x234 -1 ~x235 -1 ~x236 -1 ~x237 -1 ~x238 -1 ~x239 -1 ~x240 -1 ~x241 -1 ~x242 -1 ~x243 -1 ~x244 -1 ~x245 -1 ~x246 -1 ~x247 -1 ~x248 -1 ~x249 -1 ~x250 -1 ~x251 -1 ~x252 -1 ~x253 -1 ~x254 -1 ~x255 -1 ~x256 -1 ~x257 -1 ~x258 -1 ~x259 -1 ~x260 -1 ~x261 -1 ~x262 -1 ~x263 -1 ~x264 -1 ~x265 -1 ~x266 -1 ~x267 -1 ~x268 -1 ~x269 -1 ~x270 -1 ~x271 -1 ~x272 -1 ~x273 -1 ~x274 -1 ~x275 -1 ~x276 -1 ~x277 -1 ~x278 -1 ~x279 -1 ~x280 -1 ~x281 -1 ~x282 -1 ~x283 -1 ~x284 -1 ~x285 -1 ~x286 -1 ~x287 -1 ~x288 -1 ~x289 -1 ~x290 -1 ~x291 -1 ~x292 -1 ~x293 +243 ~x299 >= -242;
 -1 x2 -1 x16 -1 x17 -1 x18 -1 x19 -1 x20 -1 x21 -1 x22 -1 x23 -1 x24 -1 x25 -1 x26 -1 x27 -1 x28 -1 x29 -1 x30 -1 x31 -1 x32 -1 x33 -1 x34 -1 x35 -1 x36 -1 x37 -1 x38 -1 x39 -1 x40 -1 x41 -1 x42 -1 x43 -1 x44 -1 x45 -1 x46 -1 x47 -1 x48 -1 x49 -1 x50 -1 x51 -1 x52 -1 x53 -1 x54 -1 x55 -1 x56 -1 x57 -1 x58 -1 x59 -1 x60 -1 x64 -1 x77 -1 x78 -1 x79 -1 x80 -1 x81 -1 x82 -1 x83 -1 x84 -1 x85 -1 x86 -1 x87 -1 x88 -1 x89 -1 x90 -1 x91 -1 x92 -1 x93 -1 x94 -1 x95 -1 x96 -1 x97 -1 x98 -1 x99 -1 x100 -1 x101 -1 x102 -1 x103 -1 x104 -1 x105 -1 x106 -1 x109 -1 x123 -1 x124 -1 x125 -1 x126 -1 x127 -1 x128 -1 x129 -1 x130 -1 x131 -1 x132 -1 x133 -1 x134 -1 x135 -1 x136 -1 x137 -1 x183 -1 x184 -1 x185 -1 x186 -1 x187 -1 x188 -1 x189 -1 x190 -1 x191 -1 x192 -1 x193 -1 x194 -1 x195 -1 x196 -1 x197 -1 x153 -1 x154 -1 x155 -1 x156 -1 x157 -1 x158 -1 x159 -1 x160 -1 x161 -1 x162 -1 x163 -1 x164 -1 x165 -1 x166 -1 x167 -1 x168 -1 x169 -1 x170 -1 x171 -1 x172 -1 x173 -1 x174 -1 x175 -1 x176 -1 x177 -1 x178 -1 x179 -1 x180 -1 x181 -1 x182 -1 x183 -1 x184 -1 x185 -1 x186 -1 x187 -1 x188 -1 x189 -1 x190 -1 x191 -1 x192 -1 x193 -1 x194 -1 x195 -1 x196 -1 x197 -1 x199 -1 x205 -1 x206 -1 x207 -1 x208 -1 x209 -1 x210 -1 x211 -1 x212 -1 x213 -1 x214 -1 x215 -1 x216 -1 x217 -1 x218 -1 x219 -1 x220 -1 x221 -1 x222 -1 x223 -1 x224 -1 x225 -1 x226 -1 x227 -1 x228 -1 x229 -1 x230 -1 x231 -1 x232 -1 x233 -1 x234 -1 x235 -1 x236 -1 x237 -1 x238 -1 x239 -1 x240 -1 x241 -1 x242 -1 x243 -1 x244 -1 x245 -1 x246 -1 x247 -1 x248 -1 x249 -1 x250 -1 x251 -1 x252 -1 x253 -1 x254 -1 x255 -1 x256 -1 x257 -1 x258 -1 x259 -1 x260 -1 x261 -1 x262 -1 x263 -1 x264 -1 x265 -1 x266 -1 x267 -1 x268 -1 x269 -1 x270 -1 x271 -1 x272 -1 x273 -1 x274 -1 x275 -1 x276 -1 x277 -1 x278 -1 x279 -1 x280 -1 x281 -1 x282 -1 x283 -1 x284 -1 x285 -1 x286 -1 x287 -1 x288 -1 x289 -1 x290 -1 x291 -1 x292 -1 x293 +243 x300 >= 0;
 -1 ~x2 -1 ~x16 -1 ~x17 -1 ~x18 -1 ~x19 -1 ~x20 -1 ~x21 -1 ~x22 -1 ~x23 -1 ~x24 -1 ~x25 -1 ~x26 -1 ~x27 -1 ~x28 -1 ~x29 -1 ~x30 -1 ~x31 -1 ~x32 -1 ~x33 -1 ~x34 -1 ~x35 -1 ~x36 -1 ~x37 -1 ~x38 -1 ~x39 -1 ~x40 -1 ~x41 -1 ~x42 -1 ~x43 -1 ~x44 -1 ~x45 -1 ~x46 -1 ~x47 -1 ~x48 -1 ~x49 -1 ~x50 -1 ~x51 -1 ~x52 -1 ~x53 -1 ~x54 -1 ~x55 -1 ~x56 -1 ~x57 -1 ~x58 -1 ~x59 -1 ~x60 -1 ~x64 -1 ~x77 -1 ~x78 -1 ~x79 -1 ~x80 -1 ~x81 -1 ~x82 -1 ~x83 -1 ~x84 -1 ~x85 -1 ~x86 -1 ~x87 -1 ~x88 -1 ~x89 -1 ~x90 -1 ~x91 -1 ~x92 -1 ~x93 -1 ~x94 -1 ~x95 -1 ~x96 -1 ~x97 -1 ~x98 -1 ~x99 -1 ~x100 -1 ~x101 -1 ~x102 -1 ~x103 -1 ~x104 -1 ~x105 -1 ~x106 -1 ~x109 -1 ~x123 -1 ~x124 -1 ~x125 -1 ~x126 -1 ~x127 -1 ~x128 -1 ~x129 -1 ~x130 -1 ~x131 -1 ~x132 -1 ~x133 -1 ~x134 -1 ~x135 -1 ~x136 -1 ~x137 -1 ~x183 -1 ~x184 -1 ~x185 -1 ~x186 -1 ~x187 -1 ~x188 -1 ~x189 -1 ~x190 -1 ~x191 -1 ~x192 -1 ~x193 -1 ~x194 -1 ~x195 -1 ~x196 -1 ~x197 -1 ~x153 -1 ~x154 -1 ~x155 -1 ~x156 -1 ~x157 -1 ~x158 -1 ~x159 -1 ~x160 -1 ~x161 -1 ~x162 -1 ~x163 -1 ~x164 -1 ~x165 -1 ~x166 -1 ~x167 -1 ~x168 -1 ~x169 -1 ~x170 -1 ~x171 -1 ~x172 -1 ~x173 -1 ~x174 -1 ~x175 -1 ~x176 -1 ~x177 -1 ~x178 -1 ~x179 -1 ~x180 -1 ~x181 -1 ~x182 -1 ~x183 -1 ~x184 -1 ~x185 -1 ~x186 -1 ~x187 -1 ~x188 -1 ~x189 -1 ~x190 -1 ~x191 -1 ~x192 -1 ~x193 -1 ~x194 -1 ~x195 -1 ~x196 -1 ~x197 -1 ~x199 -1 ~x205 -1 ~x206 -1 ~x207 -1 ~x208 -1 ~x209 -1 ~x210 -1 ~x211 -1 ~x212 -1 ~x213 -1 ~x214 -1 ~x215 -1 ~x216 -1 ~x217 -1 ~x218 -1 ~x219 -1 ~x220 -1 ~x221 -1 ~x222 -1 ~x223 -1 ~x224 -1 ~x225 -1 ~x226 -1 ~x227 -1 ~x228 -1 ~x229 -1 ~x230 -1 ~x231 -1 ~x232 -1 ~x233 -1 ~x234 -1 ~x235 -1 ~x236 -1 ~x237 -1 ~x238 -1 ~x239 -1 ~x240 -1 ~x241 -1 ~x242 -1 ~x243 -1 ~x244 -1 ~x245 -1 ~x246 -1 ~x247 -1 ~x248 -1 ~x249 -1 ~x250 -1 ~x251 -1 ~x252 -1 ~x253 -1 ~x254 -1 ~x255 -1 ~x256 -1 ~x257 -1 ~x258 -1 ~x259 -1 ~x260 -1 ~x261 -1 ~x262 -1 ~x263 -1 ~x264 -1 ~x265 -1 ~x266 -1 ~x267 -1 ~x268 -1 ~x269 -1 ~x270 -1 ~x271 -1 ~x272 -1 ~x273 -1 ~x274 -1 ~x275 -1 ~x276 -1 ~x277 -1 ~x278 -1 ~x279 -1 ~x280 -1 ~x281 -1 ~x282 -1 ~x283 -1 ~x284 -1 ~x285 -1 ~x286 -1 ~x287 -1 ~x288 -1 ~x289 -1 ~x290 -1 ~x291 -1 ~x292 -1 ~x293 +243 ~x300 >= -242;
* Move Conjunctions
 +1 x199 +1 x2 -2 x301 >= 0;
 +1 ~x199 +1 ~x2 -2 ~x301 >= -1;
 +1 x200 +1 x3 -2 x302 >= 0;
 +1 ~x200 +1 ~x3 -2 ~x302 >= -1;
 +1 x201 +1 x12 -2 x303 >= 0;
 +1 ~x201 +1 ~x12 -2 ~x303 >= -1;
 +1 x202 +1 x13 -2 x304 >= 0;
 +1 ~x202 +1 ~x13 -2 ~x304 >= -1;
 +1 x203 +1 x14 -2 x305 >= 0;
 +1 ~x203 +1 ~x14 -2 ~x305 >= -1;
 +1 x204 +1 x15 -2 x306 >= 0;
 +1 ~x204 +1 ~x15 -2 ~x306 >= -1;
 +1 x199 +1 x2 -2 x307 >= 0;
 +1 ~x199 +1 ~x2 -2 ~x307 >= -1;
 +1 x200 +1 x3 -2 x308 >= 0;
 +1 ~x200 +1 ~x3 -2 ~x308 >= -1;
 +1 x201 +1 x12 -2 x309 >= 0;
 +1 ~x201 +1 ~x12 -2 ~x309 >= -1;
 +1 x202 +1 x13 -2 x310 >= 0;
 +1 ~x202 +1 ~x13 -2 ~x310 >= -1;
 +1 x203 +1 x14 -2 x311 >= 0;
 +1 ~x203 +1 ~x14 -2 ~x311 >= -1;
 +1 x204 +1 x15 -2 x312 >= 0;
 +1 ~x204 +1 ~x15 -2 ~x312 >= -1;
 +1 x279 +1 x1 -2 x313 >= 0;
 +1 ~x279 +1 ~x1 -2 ~x313 >= -1;
 +1 x280 +1 x2 -2 x314 >= 0;
 +1 ~x280 +1 ~x2 -2 ~x314 >= -1;
 +1 x281 +1 x3 -2 x315 >= 0;
 +1 ~x281 +1 ~x3 -2 ~x315 >= -1;
 +1 x282 +1 x4 -2 x316 >= 0;
 +1 ~x282 +1 ~x4 -2 ~x316 >= -1;
 +1 x283 +1 x5 -2 x317 >= 0;
 +1 ~x283 +1 ~x5 -2 ~x317 >= -1;
 +1 x284 +1 x6 -2 x318 >= 0;
 +1 ~x284 +1 ~x6 -2 ~x318 >= -1;
 +1 x285 +1 x7 -2 x319 >= 0;
 +1 ~x285 +1 ~x7 -2 ~x319 >= -1;
 +1 x286 +1 x8 -2 x320 >= 0;
 +1 ~x286 +1 ~x8 -2 ~x320 >= -1;
 +1 x287 +1 x9 -2 x321 >= 0;
 +1 ~x287 +1 ~x9 -2 ~x321 >= -1;
 +1 x288 +1 x10 -2 x322 >= 0;
 +1 ~x288 +1 ~x10 -2 ~x322 >= -1;
 +1 x289 +1 x11 -2 x323 >= 0;
 +1 ~x289 +1 ~x11 -2 ~x323 >= -1;
 +1 x290 +1 x12 -2 x324 >= 0;
 +1 ~x290 +1 ~x12 -2 ~x324 >= -1;
 +1 x291 +1 x13 -2 x325 >= 0;
 +1 ~x291 +1 ~x13 -2 ~x325 >= -1;
 +1 x292 +1 x14 -2 x326 >= 0;
 +1 ~x292 +1 ~x14 -2 ~x326 >= -1;
 +1 x293 +1 x15 -2 x327 >= 0;
 +1 ~x293 +1 ~x15 -2 ~x327 >= -1;
 +1 x279 +1 x1 -2 x328 >= 0;
 +1 ~x279 +1 ~x1 -2 ~x328 >= -1;
 +1 x280 +1 x2 -2 x329 >= 0;
 +1 ~x280 +1 ~x2 -2 ~x329 >= -1;
 +1 x281 +1 x3 -2 x330 >= 0;
 +1 ~x281 +1 ~x3 -2 ~x330 >= -1;
 +1 x282 +1 x4 -2 x331 >= 0;
 +1 ~x282 +1 ~x4 -2 ~x331 >= -1;
 +1 x283 +1 x5 -2 x332 >= 0;
 +1 ~x283 +1 ~x5 -2 ~x332 >= -1;
 +1 x284 +1 x6 -2 x333 >= 0;
 +1 ~x284 +1 ~x6 -2 ~x333 >= -1;
 +1 x285 +1 x7 -2 x334 >= 0;
 +1 ~x285 +1 ~x7 -2 ~x334 >= -1;
 +1 x286 +1 x8 -2 x335 >= 0;
 +1 ~x286 +1 ~x8 -2 ~x335 >= -1;
 +1 x287 +1 x9 -2 x336 >= 0;
 +1 ~x287 +1 ~x9 -2 ~x336 >= -1;
 +1 x288 +1 x10 -2 x337 >= 0;
 +1 ~x288 +1 ~x10 -2 ~x337 >= -1;
 +1 x289 +1 x11 -2 x338 >= 0;
 +1 ~x289 +1 ~x11 -2 ~x338 >= -1;
 +1 x290 +1 x12 -2 x339 >= 0;
 +1 ~x290 +1 ~x12 -2 ~x339 >= -1;
 +1 x291 +1 x13 -2 x340 >= 0;
 +1 ~x291 +1 ~x13 -2 ~x340 >= -1;
 +1 x292 +1 x14 -2 x341 >= 0;
 +1 ~x292 +1 ~x14 -2 ~x341 >= -1;
 +1 x293 +1 x15 -2 x342 >= 0;
 +1 ~x293 +1 ~x15 -2 ~x342 >= -1;
* Valid Assignment
 +1 x1 +1 x2 +1 x3 +1 x4 +1 x5 +1 x6 +1 x7 +1 x8 +1 x9 +1 x10 +1 x11 +1 x12 +1 x13 +1 x14 +1 x15 +1 x61 = 1;
 +1 x62 +1 x63 +1 x64 +1 x65 +1 x66 +1 x67 +1 x68 +1 x69 +1 x70 +1 x71 +1 x72 +1 x73 +1 x74 +1 x75 +1 x76 +1 x107 = 1;
 +1 x108 +1 x109 +1 x110 +1 x111 +1 x112 +1 x113 +1 x114 +1 x115 +1 x116 +1 x117 +1 x118 +1 x119 +1 x120 +1 x121 +1 x122 +1 x198 = 1;
 +1 x199 +1 x200 +1 x201 +1 x202 +1 x203 +1 x204 +1 x294 = 1;
* Valid Usage
 -1 x61 +1 x16 +1 x17 +1 x18 +1 x19 +1 x20 +1 x21 +1 x22 +1 x23 +1 x24 +1 x25 +1 x26 +1 x27 +1 x28 +1 x29 +1 x30 = 0;
 -1 x61 +1 x31 +1 x32 +1 x33 +1 x34 +1 x35 +1 x36 +1 x37 +1 x38 +1 x39 +1 x40 +1 x41 +1 x42 +1 x43 +1 x44 +1 x45 = 0;
 -1 x61 +1 x46 +1 x47 +1 x48 +1 x49 +1 x50 +1 x51 +1 x52 +1 x53 +1 x54 +1 x55 +1 x56 +1 x57 +1 x58 +1 x59 +1 x60 = 0;
 -1 x107 +1 x77 +1 x78 +1 x79 +1 x80 +1 x81 +1 x82 +1 x83 +1 x84 +1 x85 +1 x86 +1 x87 +1 x88 +1 x89 +1 x90 +1 x91 = 0;
 -1 x107 +1 x92 +1 x93 +1 x94 +1 x95 +1 x96 +1 x97 +1 x98 +1 x99 +1 x100 +1 x101 +1 x102 +1 x103 +1 x104 +1 x105 +1 x106 = 0;
 -1 x198 +1 x123 +1 x124 +1 x125 +1 x126 +1 x127 +1 x128 +1 x129 +1 x130 +1 x131 +1 x132 +1 x133 +1 x134 +1 x135 +1 x136 +1 x137 = 0;
 -1 x198 +1 x183 +1 x184 +1 x185 +1 x186 +1 x187 +1 x188 +1 x189 +1 x190 +1 x191 +1 x192 +1 x193 +1 x194 +1 x195 +1 x196 +1 x197 = 0;
 -1 x198 +1 x153 +1 x154 +1 x155 +1 x156 +1 x157 +1 x158 +1 x159 +1 x160 +1 x161 +1 x162 +1 x163 +1 x164 +1 x165 +1 x166 +1 x167 = 0;
 -1 x198 +1 x168 +1 x169 +1 x170 +1 x171 +1 x172 +1 x173 +1 x174 +1 x175 +1 x176 +1 x177 +1 x178 +1 x179 +1 x180 +1 x181 +1 x182 = 0;
 -1 x198 +1 x183 +1 x184 +1 x185 +1 x186 +1 x187 +1 x188 +1 x189 +1 x190 +1 x191 +1 x192 +1 x193 +1 x194 +1 x195 +1 x196 +1 x197 = 0;
 -1 x294 +1 x205 +1 x206 +1 x207 +1 x208 +1 x209 +1 x210 +1 x211 +1 x212 +1 x213 +1 x214 +1 x215 +1 x216 +1 x217 +1 x218 +1 x219 = 0;
 -1 x294 +1 x220 +1 x221 +1 x222 +1 x223 +1 x224 +1 x225 +1 x226 +1 x227 +1 x228 +1 x229 +1 x230 +1 x231 +1 x232 +1 x233 = 0;
 -1 x294 +1 x234 +1 x235 +1 x236 +1 x237 +1 x238 +1 x239 +1 x240 +1 x241 +1 x242 +1 x243 +1 x244 +1 x245 +1 x246 +1 x247 +1 x248 = 0;
 -1 x294 +1 x249 +1 x250 +1 x251 +1 x252 +1 x253 +1 x254 +1 x255 +1 x256 +1 x257 +1 x258 +1 x259 +1 x260 +1 x261 +1 x262 +1 x263 = 0;
 -1 x294 +1 x264 +1 x265 +1 x266 +1 x267 +1 x268 +1 x269 +1 x270 +1 x271 +1 x272 +1 x273 +1 x274 +1 x275 +1 x276 +1 x277 +1 x278 = 0;
 -1 x294 +1 x279 +1 x280 +1 x281 +1 x282 +1 x283 +1 x284 +1 x285 +1 x286 +1 x287 +1 x288 +1 x289 +1 x290 +1 x291 +1 x292 +1 x293 = 0;
* Conflict Constraints
 +1 ~x199 +1 ~x2 >= 1;
 +1 ~x200 +1 ~x3 >= 1;
 +1 ~x201 +1 ~x12 >= 1;
 +1 ~x202 +1 ~x13 >= 1;
 +1 ~x203 +1 ~x14 >= 1;
 +1 ~x204 +1 ~x15 >= 1;
* Usage Constraints
 +1 ~x32 +1 ~x199 >= 1;
 +1 ~x33 +1 ~x200 >= 1;
 +1 ~x42 +1 ~x201 >= 1;
 +1 ~x43 +1 ~x202 >= 1;
 +1 ~x44 +1 ~x203 >= 1;
 +1 ~x45 +1 ~x204 >= 1;
 +1 ~x47 +1 ~x199 >= 1;
 +1 ~x48 +1 ~x200 >= 1;
 +1 ~x57 +1 ~x201 >= 1;
 +1 ~x58 +1 ~x202 >= 1;
 +1 ~x59 +1 ~x203 >= 1;
 +1 ~x60 +1 ~x204 >= 1;
 +1 ~x249 +1 ~x1 >= 1;
 +1 ~x250 +1 ~x2 >= 1;
 +1 ~x251 +1 ~x3 >= 1;
 +1 ~x252 +1 ~x4 >= 1;
 +1 ~x253 +1 ~x5 >= 1;
 +1 ~x254 +1 ~x6 >= 1;
 +1 ~x255 +1 ~x7 >= 1;
 +1 ~x256 +1 ~x8 >= 1;
 +1 ~x257 +1 ~x9 >= 1;
 +1 ~x258 +1 ~x10 >= 1;
 +1 ~x259 +1 ~x11 >= 1;
 +1 ~x260 +1 ~x12 >= 1;
 +1 ~x261 +1 ~x13 >= 1;
 +1 ~x262 +1 ~x14 >= 1;
 +1 ~x263 +1 ~x15 >= 1;
 +1 ~x279 +1 ~x1 >= 1;
 +1 ~x280 +1 ~x2 >= 1;
 +1 ~x281 +1 ~x3 >= 1;
 +1 ~x282 +1 ~x4 >= 1;
 +1 ~x283 +1 ~x5 >= 1;
 +1 ~x284 +1 ~x6 >= 1;
 +1 ~x285 +1 ~x7 >= 1;
 +1 ~x286 +1 ~x8 >= 1;
 +1 ~x287 +1 ~x9 >= 1;
 +1 ~x288 +1 ~x10 >= 1;
 +1 ~x289 +1 ~x11 >= 1;
 +1 ~x290 +1 ~x12 >= 1;
 +1 ~x291 +1 ~x13 >= 1;
 +1 ~x292 +1 ~x14 >= 1;
 +1 ~x293 +1 ~x15 >= 1;
